min: c;

c = 3.87486772636217 * u4_t1_h1 + 3.82743988189856 * u4_t1_h2 + 2.99090789937186 * u4_t1_h3 + 2.87490514726069 * u4_t1_h4 + 2.87490514726069 * u4_t10_h4 + 3.14867927140081 * u4_t1_h5 + 3.14867927140081 * u4_t10_h5 + 4.01199603851974 * u4_t1_h6 + 4.01199603851974 * u4_t10_h6 + 4.2841049057867 * u4_t1_h7 + 4.2841049057867 * u4_t10_h7 + 5.25603420354519 * u4_t1_h8 + 5.25603420354519 * u4_t9_h8 + 5.25603420354519 * u4_t10_h8 + 5.15850277359381 * u4_t9_h9 + 5.15850277359381 * u4_t10_h9 + 5.08633459122471 * u4_t9_h10 + 5.08633459122471 * u4_t10_h10 + 4.2491720723628 * u4_t2_h11 + 4.2491720723628 * u4_t4_h11 + 4.2491720723628 * u4_t9_h11 + 4.2491720723628 * u4_t10_h11 + 5.75163218230343 * u4_t2_h12 + 5.75163218230343 * u4_t3_h12 + 5.75163218230343 * u4_t4_h12 + 5.75163218230343 * u4_t8_h12 + 5.75163218230343 * u4_t9_h12 + 5.75163218230343 * u4_t10_h12 + 4.59943409338097 * u4_t2_h13 + 4.59943409338097 * u4_t3_h13 + 4.59943409338097 * u4_t4_h13 + 4.59943409338097 * u4_t8_h13 + 4.59943409338097 * u4_t9_h13 + 5.48865583131397 * u4_t2_h14 + 5.48865583131397 * u4_t3_h14 + 5.48865583131397 * u4_t4_h14 + 5.48865583131397 * u4_t8_h14 + 5.48865583131397 * u4_t9_h14 + 6.36973084920262 * u4_t2_h15 + 6.36973084920262 * u4_t3_h15 + 6.36973084920262 * u4_t4_h15 + 6.36973084920262 * u4_t8_h15 + 6.36973084920262 * u4_t9_h15 + 5.57317327972904 * u4_t2_h16 + 5.57317327972904 * u4_t3_h16 + 5.57317327972904 * u4_t4_h16 + 5.57317327972904 * u4_t5_h16 + 5.57317327972904 * u4_t8_h16 + 5.57317327972904 * u4_t9_h16 + 6.6033270618101 * u4_t2_h17 + 6.6033270618101 * u4_t3_h17 + 6.6033270618101 * u4_t5_h17 + 6.6033270618101 * u4_t8_h17 + 6.6033270618101 * u4_t9_h17 + 6.50219764557237 * u4_t2_h18 + 6.50219764557237 * u4_t3_h18 + 6.50219764557237 * u4_t5_h18 + 6.50219764557237 * u4_t8_h18 + 6.50219764557237 * u4_t9_h18 + 5.99224160429987 * u4_t2_h19 + 5.99224160429987 * u4_t3_h19 + 5.99224160429987 * u4_t6_h19 + 5.99224160429987 * u4_t8_h19 + 5.99224160429987 * u4_t9_h19 + 5.41230433115191 * u4_t2_h20 + 5.41230433115191 * u4_t6_h20 + 5.41230433115191 * u4_t9_h20 + 4.78940650285268 * u4_t6_h21 + 6.02077312268415 * u4_t6_h22 + 6.02077312268415 * u4_t7_h22 + 5.52628429035552 * u4_t6_h23 + 5.52628429035552 * u4_t7_h23;
0 <= u4_t1_h1 <= 1;
0 <= u4_t1_h2 <= 1;
0 <= u4_t1_h3 <= 1;
0 <= u4_t1_h4 <= 1;
0 <= u4_t1_h5 <= 1;
0 <= u4_t1_h6 <= 1;
0 <= u4_t1_h7 <= 1;
0 <= u4_t1_h8 <= 1;
u4_t1_h1 + u4_t1_h2 + u4_t1_h3 + u4_t1_h4 + u4_t1_h5 + u4_t1_h6 + u4_t1_h7 + u4_t1_h8 = 1;
0 <= u4_t2_h11 <= 1;
0 <= u4_t2_h12 <= 1;
0 <= u4_t2_h13 <= 1;
0 <= u4_t2_h14 <= 1;
0 <= u4_t2_h15 <= 1;
0 <= u4_t2_h16 <= 1;
0 <= u4_t2_h17 <= 1;
0 <= u4_t2_h18 <= 1;
0 <= u4_t2_h19 <= 1;
0 <= u4_t2_h20 <= 1;
u4_t2_h11 + u4_t2_h12 + u4_t2_h13 + u4_t2_h14 + u4_t2_h15 + u4_t2_h16 + u4_t2_h17 + u4_t2_h18 + u4_t2_h19 + u4_t2_h20 = 2;
0 <= u4_t3_h12 <= 1;
0 <= u4_t3_h13 <= 1;
0 <= u4_t3_h14 <= 1;
0 <= u4_t3_h15 <= 1;
0 <= u4_t3_h16 <= 1;
0 <= u4_t3_h17 <= 1;
0 <= u4_t3_h18 <= 1;
0 <= u4_t3_h19 <= 1;
u4_t3_h12 + u4_t3_h13 + u4_t3_h14 + u4_t3_h15 + u4_t3_h16 + u4_t3_h17 + u4_t3_h18 + u4_t3_h19 = 3;
0 <= u4_t4_h11 <= 1;
0 <= u4_t4_h12 <= 1;
0 <= u4_t4_h13 <= 1;
0 <= u4_t4_h14 <= 1;
0 <= u4_t4_h15 <= 1;
0 <= u4_t4_h16 <= 1;
u4_t4_h11 + u4_t4_h12 + u4_t4_h13 + u4_t4_h14 + u4_t4_h15 + u4_t4_h16 = 3;
0 <= u4_t5_h16 <= 1;
0 <= u4_t5_h17 <= 1;
0 <= u4_t5_h18 <= 1;
u4_t5_h16 + u4_t5_h17 + u4_t5_h18 = 1;
0 <= u4_t6_h19 <= 1;
0 <= u4_t6_h20 <= 1;
0 <= u4_t6_h21 <= 1;
0 <= u4_t6_h22 <= 1;
0 <= u4_t6_h23 <= 1;
u4_t6_h19 + u4_t6_h20 + u4_t6_h21 + u4_t6_h22 + u4_t6_h23 = 3;
0 <= u4_t7_h22 <= 1;
0 <= u4_t7_h23 <= 1;
u4_t7_h22 + u4_t7_h23 = 1;
0 <= u4_t8_h12 <= 1;
0 <= u4_t8_h13 <= 1;
0 <= u4_t8_h14 <= 1;
0 <= u4_t8_h15 <= 1;
0 <= u4_t8_h16 <= 1;
0 <= u4_t8_h17 <= 1;
0 <= u4_t8_h18 <= 1;
0 <= u4_t8_h19 <= 1;
u4_t8_h12 + u4_t8_h13 + u4_t8_h14 + u4_t8_h15 + u4_t8_h16 + u4_t8_h17 + u4_t8_h18 + u4_t8_h19 = 2;
0 <= u4_t9_h8 <= 1;
0 <= u4_t9_h9 <= 1;
0 <= u4_t9_h10 <= 1;
0 <= u4_t9_h11 <= 1;
0 <= u4_t9_h12 <= 1;
0 <= u4_t9_h13 <= 1;
0 <= u4_t9_h14 <= 1;
0 <= u4_t9_h15 <= 1;
0 <= u4_t9_h16 <= 1;
0 <= u4_t9_h17 <= 1;
0 <= u4_t9_h18 <= 1;
0 <= u4_t9_h19 <= 1;
0 <= u4_t9_h20 <= 1;
u4_t9_h8 + u4_t9_h9 + u4_t9_h10 + u4_t9_h11 + u4_t9_h12 + u4_t9_h13 + u4_t9_h14 + u4_t9_h15 + u4_t9_h16 + u4_t9_h17 + u4_t9_h18 + u4_t9_h19 + u4_t9_h20 = 2;
0 <= u4_t10_h4 <= 1;
0 <= u4_t10_h5 <= 1;
0 <= u4_t10_h6 <= 1;
0 <= u4_t10_h7 <= 1;
0 <= u4_t10_h8 <= 1;
0 <= u4_t10_h9 <= 1;
0 <= u4_t10_h10 <= 1;
0 <= u4_t10_h11 <= 1;
0 <= u4_t10_h12 <= 1;
u4_t10_h4 + u4_t10_h5 + u4_t10_h6 + u4_t10_h7 + u4_t10_h8 + u4_t10_h9 + u4_t10_h10 + u4_t10_h11 + u4_t10_h12 = 2;
